TYPE : Vertex Cover
DIMENSION: 24
EDGE_DATA_SECTION:
0 2
1 3
1 10
2 3
2 16
3 6
3 9
3 10
3 11
3 23
4 11
5 6
6 8
6 19
7 8
8 17
9 13
9 20
11 12
11 13
11 18
11 20
11 22
12 16
12 21
15 16
16 22
19 21
21 23
-1
VERTEX_DEGREE:
1.0 2.0 3.0 7.0 1.0 1.0 4.0 1.0 3.0 3.0 2.0 7.0 3.0 2.0 0.0 1.0 4.0 1.0 1.0 2.0 2.0 3.0 2.0 2.0
VERTEX_COVER:
1 2 3 6 8 9 11 16 21
EOF
